NAME : OCPPP1.gtsp
TYPE : AGTSP
COMMENT : 62 node gaussian kernel 50
DIMENSION : 62
GTSP_SETS : 31 
EDGE_WEIGHT_TYPE : EXPLICIT
EDGE_WEIGHT_FORMAT : FULL_MATRIX 
EDGE_WEIGHT_SECTION
0 0 400 400 1600 1600 3600 3600 6400 6400 10000 10000 14400 14400 19600 19600 25600 25600 32400 32400 40000 40000 48400 48400 57600 57600 67600 67600 78400 78400 78400 78400 90000 90000 90000 90000 102400 102400 102400 102400 115600 115600 115600 115600 129600 129600 129600 129600 144400 144400 102400 115600 0 400 14400 40000 48400 57600 400 10000 57600 144400
0 0 400 400 1600 1600 3600 3600 6400 6400 10000 10000 14400 14400 19600 19600 25600 25600 32400 32400 40000 40000 48400 48400 57600 57600 67600 67600 78400 78400 78400 78400 90000 90000 90000 90000 102400 102400 102400 102400 115600 115600 115600 115600 129600 129600 129600 129600 144400 144400 102400 115600 0 400 14400 40000 48400 57600 400 10000 57600 144400
400 400 0 0 400 400 1600 1600 3600 3600 6400 6400 10000 10000 14400 14400 19600 19600 25600 25600 32400 32400 40000 40000 48400 48400 57600 57600 67600 67600 67600 67600 78400 78400 78400 78400 90000 90000 90000 90000 102400 102400 102400 102400 115600 115600 115600 115600 129600 129600 90000 102400 400 0 10000 32400 40000 48400 0 6400 48400 129600
400 400 0 0 400 400 1600 1600 3600 3600 6400 6400 10000 10000 14400 14400 19600 19600 25600 25600 32400 32400 40000 40000 48400 48400 57600 57600 67600 67600 67600 67600 78400 78400 78400 78400 90000 90000 90000 90000 102400 102400 102400 102400 115600 115600 115600 115600 129600 129600 90000 102400 400 0 10000 32400 40000 48400 0 6400 48400 129600
1600 1600 400 400 0 0 400 400 1600 1600 3600 3600 6400 6400 10000 10000 14400 14400 19600 19600 25600 25600 32400 32400 40000 40000 48400 48400 57600 57600 57600 57600 67600 67600 67600 67600 78400 78400 78400 78400 90000 90000 90000 90000 102400 102400 102400 102400 115600 115600 78400 90000 1600 400 6400 25600 32400 40000 400 3600 40000 115600
1600 1600 400 400 0 0 400 400 1600 1600 3600 3600 6400 6400 10000 10000 14400 14400 19600 19600 25600 25600 32400 32400 40000 40000 48400 48400 57600 57600 57600 57600 67600 67600 67600 67600 78400 78400 78400 78400 90000 90000 90000 90000 102400 102400 102400 102400 115600 115600 78400 90000 1600 400 6400 25600 32400 40000 400 3600 40000 115600
3600 3600 1600 1600 400 400 0 0 400 400 1600 1600 3600 3600 6400 6400 10000 10000 14400 14400 19600 19600 25600 25600 32400 32400 40000 40000 48400 48400 48400 48400 57600 57600 57600 57600 67600 67600 67600 67600 78400 78400 78400 78400 90000 90000 90000 90000 102400 102400 67600 78400 3600 1600 3600 19600 25600 32400 1600 1600 32400 102400
3600 3600 1600 1600 400 400 0 0 400 400 1600 1600 3600 3600 6400 6400 10000 10000 14400 14400 19600 19600 25600 25600 32400 32400 40000 40000 48400 48400 48400 48400 57600 57600 57600 57600 67600 67600 67600 67600 78400 78400 78400 78400 90000 90000 90000 90000 102400 102400 67600 78400 3600 1600 3600 19600 25600 32400 1600 1600 32400 102400
6400 6400 3600 3600 1600 1600 400 400 0 0 400 400 1600 1600 3600 3600 6400 6400 10000 10000 14400 14400 19600 19600 25600 25600 32400 32400 40000 40000 40000 40000 48400 48400 48400 48400 57600 57600 57600 57600 67600 67600 67600 67600 78400 78400 78400 78400 90000 90000 57600 67600 6400 3600 1600 14400 19600 25600 3600 400 25600 90000
6400 6400 3600 3600 1600 1600 400 400 0 0 400 400 1600 1600 3600 3600 6400 6400 10000 10000 14400 14400 19600 19600 25600 25600 32400 32400 40000 40000 40000 40000 48400 48400 48400 48400 57600 57600 57600 57600 67600 67600 67600 67600 78400 78400 78400 78400 90000 90000 57600 67600 6400 3600 1600 14400 19600 25600 3600 400 25600 90000
10000 10000 6400 6400 3600 3600 1600 1600 400 400 0 0 400 400 1600 1600 3600 3600 6400 6400 10000 10000 14400 14400 19600 19600 25600 25600 32400 32400 32400 32400 40000 40000 40000 40000 48400 48400 48400 48400 57600 57600 57600 57600 67600 67600 67600 67600 78400 78400 48400 57600 10000 6400 400 10000 14400 19600 6400 0 19600 78400
10000 10000 6400 6400 3600 3600 1600 1600 400 400 0 0 400 400 1600 1600 3600 3600 6400 6400 10000 10000 14400 14400 19600 19600 25600 25600 32400 32400 32400 32400 40000 40000 40000 40000 48400 48400 48400 48400 57600 57600 57600 57600 67600 67600 67600 67600 78400 78400 48400 57600 10000 6400 400 10000 14400 19600 6400 0 19600 78400
14400 14400 10000 10000 6400 6400 3600 3600 1600 1600 400 400 0 0 400 400 1600 1600 3600 3600 6400 6400 10000 10000 14400 14400 19600 19600 25600 25600 25600 25600 32400 32400 32400 32400 40000 40000 40000 40000 48400 48400 48400 48400 57600 57600 57600 57600 67600 67600 40000 48400 14400 10000 0 6400 10000 14400 10000 400 14400 67600
14400 14400 10000 10000 6400 6400 3600 3600 1600 1600 400 400 0 0 400 400 1600 1600 3600 3600 6400 6400 10000 10000 14400 14400 19600 19600 25600 25600 25600 25600 32400 32400 32400 32400 40000 40000 40000 40000 48400 48400 48400 48400 57600 57600 57600 57600 67600 67600 40000 48400 14400 10000 0 6400 10000 14400 10000 400 14400 67600
19600 19600 14400 14400 10000 10000 6400 6400 3600 3600 1600 1600 400 400 0 0 400 400 1600 1600 3600 3600 6400 6400 10000 10000 14400 14400 19600 19600 19600 19600 25600 25600 25600 25600 32400 32400 32400 32400 40000 40000 40000 40000 48400 48400 48400 48400 57600 57600 32400 40000 19600 14400 400 3600 6400 10000 14400 1600 10000 57600
19600 19600 14400 14400 10000 10000 6400 6400 3600 3600 1600 1600 400 400 0 0 400 400 1600 1600 3600 3600 6400 6400 10000 10000 14400 14400 19600 19600 19600 19600 25600 25600 25600 25600 32400 32400 32400 32400 40000 40000 40000 40000 48400 48400 48400 48400 57600 57600 32400 40000 19600 14400 400 3600 6400 10000 14400 1600 10000 57600
25600 25600 19600 19600 14400 14400 10000 10000 6400 6400 3600 3600 1600 1600 400 400 0 0 400 400 1600 1600 3600 3600 6400 6400 10000 10000 14400 14400 14400 14400 19600 19600 19600 19600 25600 25600 25600 25600 32400 32400 32400 32400 40000 40000 40000 40000 48400 48400 25600 32400 25600 19600 1600 1600 3600 6400 19600 3600 6400 48400
25600 25600 19600 19600 14400 14400 10000 10000 6400 6400 3600 3600 1600 1600 400 400 0 0 400 400 1600 1600 3600 3600 6400 6400 10000 10000 14400 14400 14400 14400 19600 19600 19600 19600 25600 25600 25600 25600 32400 32400 32400 32400 40000 40000 40000 40000 48400 48400 25600 32400 25600 19600 1600 1600 3600 6400 19600 3600 6400 48400
32400 32400 25600 25600 19600 19600 14400 14400 10000 10000 6400 6400 3600 3600 1600 1600 400 400 0 0 400 400 1600 1600 3600 3600 6400 6400 10000 10000 10000 10000 14400 14400 14400 14400 19600 19600 19600 19600 25600 25600 25600 25600 32400 32400 32400 32400 40000 40000 19600 25600 32400 25600 3600 400 1600 3600 25600 6400 3600 40000
32400 32400 25600 25600 19600 19600 14400 14400 10000 10000 6400 6400 3600 3600 1600 1600 400 400 0 0 400 400 1600 1600 3600 3600 6400 6400 10000 10000 10000 10000 14400 14400 14400 14400 19600 19600 19600 19600 25600 25600 25600 25600 32400 32400 32400 32400 40000 40000 19600 25600 32400 25600 3600 400 1600 3600 25600 6400 3600 40000
40000 40000 32400 32400 25600 25600 19600 19600 14400 14400 10000 10000 6400 6400 3600 3600 1600 1600 400 400 0 0 400 400 1600 1600 3600 3600 6400 6400 6400 6400 10000 10000 10000 10000 14400 14400 14400 14400 19600 19600 19600 19600 25600 25600 25600 25600 32400 32400 14400 19600 40000 32400 6400 0 400 1600 32400 10000 1600 32400
40000 40000 32400 32400 25600 25600 19600 19600 14400 14400 10000 10000 6400 6400 3600 3600 1600 1600 400 400 0 0 400 400 1600 1600 3600 3600 6400 6400 6400 6400 10000 10000 10000 10000 14400 14400 14400 14400 19600 19600 19600 19600 25600 25600 25600 25600 32400 32400 14400 19600 40000 32400 6400 0 400 1600 32400 10000 1600 32400
48400 48400 40000 40000 32400 32400 25600 25600 19600 19600 14400 14400 10000 10000 6400 6400 3600 3600 1600 1600 400 400 0 0 400 400 1600 1600 3600 3600 3600 3600 6400 6400 6400 6400 10000 10000 10000 10000 14400 14400 14400 14400 19600 19600 19600 19600 25600 25600 10000 14400 48400 40000 10000 400 0 400 40000 14400 400 25600
48400 48400 40000 40000 32400 32400 25600 25600 19600 19600 14400 14400 10000 10000 6400 6400 3600 3600 1600 1600 400 400 0 0 400 400 1600 1600 3600 3600 3600 3600 6400 6400 6400 6400 10000 10000 10000 10000 14400 14400 14400 14400 19600 19600 19600 19600 25600 25600 10000 14400 48400 40000 10000 400 0 400 40000 14400 400 25600
57600 57600 48400 48400 40000 40000 32400 32400 25600 25600 19600 19600 14400 14400 10000 10000 6400 6400 3600 3600 1600 1600 400 400 0 0 400 400 1600 1600 1600 1600 3600 3600 3600 3600 6400 6400 6400 6400 10000 10000 10000 10000 14400 14400 14400 14400 19600 19600 6400 10000 57600 48400 14400 1600 400 0 48400 19600 0 19600
57600 57600 48400 48400 40000 40000 32400 32400 25600 25600 19600 19600 14400 14400 10000 10000 6400 6400 3600 3600 1600 1600 400 400 0 0 400 400 1600 1600 1600 1600 3600 3600 3600 3600 6400 6400 6400 6400 10000 10000 10000 10000 14400 14400 14400 14400 19600 19600 6400 10000 57600 48400 14400 1600 400 0 48400 19600 0 19600
67600 67600 57600 57600 48400 48400 40000 40000 32400 32400 25600 25600 19600 19600 14400 14400 10000 10000 6400 6400 3600 3600 1600 1600 400 400 0 0 400 400 400 400 1600 1600 1600 1600 3600 3600 3600 3600 6400 6400 6400 6400 10000 10000 10000 10000 14400 14400 3600 6400 67600 57600 19600 3600 1600 400 57600 25600 400 14400
67600 67600 57600 57600 48400 48400 40000 40000 32400 32400 25600 25600 19600 19600 14400 14400 10000 10000 6400 6400 3600 3600 1600 1600 400 400 0 0 400 400 400 400 1600 1600 1600 1600 3600 3600 3600 3600 6400 6400 6400 6400 10000 10000 10000 10000 14400 14400 3600 6400 67600 57600 19600 3600 1600 400 57600 25600 400 14400
78400 78400 67600 67600 57600 57600 48400 48400 40000 40000 32400 32400 25600 25600 19600 19600 14400 14400 10000 10000 6400 6400 3600 3600 1600 1600 400 400 0 0 0 0 400 400 400 400 1600 1600 1600 1600 3600 3600 3600 3600 6400 6400 6400 6400 10000 10000 1600 3600 78400 67600 25600 6400 3600 1600 67600 32400 1600 10000
78400 78400 67600 67600 57600 57600 48400 48400 40000 40000 32400 32400 25600 25600 19600 19600 14400 14400 10000 10000 6400 6400 3600 3600 1600 1600 400 400 0 0 0 0 400 400 400 400 1600 1600 1600 1600 3600 3600 3600 3600 6400 6400 6400 6400 10000 10000 1600 3600 78400 67600 25600 6400 3600 1600 67600 32400 1600 10000
78400 78400 67600 67600 57600 57600 48400 48400 40000 40000 32400 32400 25600 25600 19600 19600 14400 14400 10000 10000 6400 6400 3600 3600 1600 1600 400 400 0 0 0 0 400 400 400 400 1600 1600 1600 1600 3600 3600 3600 3600 6400 6400 6400 6400 10000 10000 1600 3600 78400 67600 25600 6400 3600 1600 67600 32400 1600 10000
78400 78400 67600 67600 57600 57600 48400 48400 40000 40000 32400 32400 25600 25600 19600 19600 14400 14400 10000 10000 6400 6400 3600 3600 1600 1600 400 400 0 0 0 0 400 400 400 400 1600 1600 1600 1600 3600 3600 3600 3600 6400 6400 6400 6400 10000 10000 1600 3600 78400 67600 25600 6400 3600 1600 67600 32400 1600 10000
90000 90000 78400 78400 67600 67600 57600 57600 48400 48400 40000 40000 32400 32400 25600 25600 19600 19600 14400 14400 10000 10000 6400 6400 3600 3600 1600 1600 400 400 400 400 0 0 0 0 400 400 400 400 1600 1600 1600 1600 3600 3600 3600 3600 6400 6400 400 1600 90000 78400 32400 10000 6400 3600 78400 40000 3600 6400
90000 90000 78400 78400 67600 67600 57600 57600 48400 48400 40000 40000 32400 32400 25600 25600 19600 19600 14400 14400 10000 10000 6400 6400 3600 3600 1600 1600 400 400 400 400 0 0 0 0 400 400 400 400 1600 1600 1600 1600 3600 3600 3600 3600 6400 6400 400 1600 90000 78400 32400 10000 6400 3600 78400 40000 3600 6400
90000 90000 78400 78400 67600 67600 57600 57600 48400 48400 40000 40000 32400 32400 25600 25600 19600 19600 14400 14400 10000 10000 6400 6400 3600 3600 1600 1600 400 400 400 400 0 0 0 0 400 400 400 400 1600 1600 1600 1600 3600 3600 3600 3600 6400 6400 400 1600 90000 78400 32400 10000 6400 3600 78400 40000 3600 6400
90000 90000 78400 78400 67600 67600 57600 57600 48400 48400 40000 40000 32400 32400 25600 25600 19600 19600 14400 14400 10000 10000 6400 6400 3600 3600 1600 1600 400 400 400 400 0 0 0 0 400 400 400 400 1600 1600 1600 1600 3600 3600 3600 3600 6400 6400 400 1600 90000 78400 32400 10000 6400 3600 78400 40000 3600 6400
102400 102400 90000 90000 78400 78400 67600 67600 57600 57600 48400 48400 40000 40000 32400 32400 25600 25600 19600 19600 14400 14400 10000 10000 6400 6400 3600 3600 1600 1600 1600 1600 400 400 400 400 0 0 0 0 400 400 400 400 1600 1600 1600 1600 3600 3600 0 400 102400 90000 40000 14400 10000 6400 90000 48400 6400 3600
102400 102400 90000 90000 78400 78400 67600 67600 57600 57600 48400 48400 40000 40000 32400 32400 25600 25600 19600 19600 14400 14400 10000 10000 6400 6400 3600 3600 1600 1600 1600 1600 400 400 400 400 0 0 0 0 400 400 400 400 1600 1600 1600 1600 3600 3600 0 400 102400 90000 40000 14400 10000 6400 90000 48400 6400 3600
102400 102400 90000 90000 78400 78400 67600 67600 57600 57600 48400 48400 40000 40000 32400 32400 25600 25600 19600 19600 14400 14400 10000 10000 6400 6400 3600 3600 1600 1600 1600 1600 400 400 400 400 0 0 0 0 400 400 400 400 1600 1600 1600 1600 3600 3600 0 400 102400 90000 40000 14400 10000 6400 90000 48400 6400 3600
102400 102400 90000 90000 78400 78400 67600 67600 57600 57600 48400 48400 40000 40000 32400 32400 25600 25600 19600 19600 14400 14400 10000 10000 6400 6400 3600 3600 1600 1600 1600 1600 400 400 400 400 0 0 0 0 400 400 400 400 1600 1600 1600 1600 3600 3600 0 400 102400 90000 40000 14400 10000 6400 90000 48400 6400 3600
115600 115600 102400 102400 90000 90000 78400 78400 67600 67600 57600 57600 48400 48400 40000 40000 32400 32400 25600 25600 19600 19600 14400 14400 10000 10000 6400 6400 3600 3600 3600 3600 1600 1600 1600 1600 400 400 400 400 0 0 0 0 400 400 400 400 1600 1600 400 0 115600 102400 48400 19600 14400 10000 102400 57600 10000 1600
115600 115600 102400 102400 90000 90000 78400 78400 67600 67600 57600 57600 48400 48400 40000 40000 32400 32400 25600 25600 19600 19600 14400 14400 10000 10000 6400 6400 3600 3600 3600 3600 1600 1600 1600 1600 400 400 400 400 0 0 0 0 400 400 400 400 1600 1600 400 0 115600 102400 48400 19600 14400 10000 102400 57600 10000 1600
115600 115600 102400 102400 90000 90000 78400 78400 67600 67600 57600 57600 48400 48400 40000 40000 32400 32400 25600 25600 19600 19600 14400 14400 10000 10000 6400 6400 3600 3600 3600 3600 1600 1600 1600 1600 400 400 400 400 0 0 0 0 400 400 400 400 1600 1600 400 0 115600 102400 48400 19600 14400 10000 102400 57600 10000 1600
115600 115600 102400 102400 90000 90000 78400 78400 67600 67600 57600 57600 48400 48400 40000 40000 32400 32400 25600 25600 19600 19600 14400 14400 10000 10000 6400 6400 3600 3600 3600 3600 1600 1600 1600 1600 400 400 400 400 0 0 0 0 400 400 400 400 1600 1600 400 0 115600 102400 48400 19600 14400 10000 102400 57600 10000 1600
129600 129600 115600 115600 102400 102400 90000 90000 78400 78400 67600 67600 57600 57600 48400 48400 40000 40000 32400 32400 25600 25600 19600 19600 14400 14400 10000 10000 6400 6400 6400 6400 3600 3600 3600 3600 1600 1600 1600 1600 400 400 400 400 0 0 0 0 400 400 1600 400 129600 115600 57600 25600 19600 14400 115600 67600 14400 400
129600 129600 115600 115600 102400 102400 90000 90000 78400 78400 67600 67600 57600 57600 48400 48400 40000 40000 32400 32400 25600 25600 19600 19600 14400 14400 10000 10000 6400 6400 6400 6400 3600 3600 3600 3600 1600 1600 1600 1600 400 400 400 400 0 0 0 0 400 400 1600 400 129600 115600 57600 25600 19600 14400 115600 67600 14400 400
129600 129600 115600 115600 102400 102400 90000 90000 78400 78400 67600 67600 57600 57600 48400 48400 40000 40000 32400 32400 25600 25600 19600 19600 14400 14400 10000 10000 6400 6400 6400 6400 3600 3600 3600 3600 1600 1600 1600 1600 400 400 400 400 0 0 0 0 400 400 1600 400 129600 115600 57600 25600 19600 14400 115600 67600 14400 400
129600 129600 115600 115600 102400 102400 90000 90000 78400 78400 67600 67600 57600 57600 48400 48400 40000 40000 32400 32400 25600 25600 19600 19600 14400 14400 10000 10000 6400 6400 6400 6400 3600 3600 3600 3600 1600 1600 1600 1600 400 400 400 400 0 0 0 0 400 400 1600 400 129600 115600 57600 25600 19600 14400 115600 67600 14400 400
144400 144400 129600 129600 115600 115600 102400 102400 90000 90000 78400 78400 67600 67600 57600 57600 48400 48400 40000 40000 32400 32400 25600 25600 19600 19600 14400 14400 10000 10000 10000 10000 6400 6400 6400 6400 3600 3600 3600 3600 1600 1600 1600 1600 400 400 400 400 0 0 3600 1600 144400 129600 67600 32400 25600 19600 129600 78400 19600 0
144400 144400 129600 129600 115600 115600 102400 102400 90000 90000 78400 78400 67600 67600 57600 57600 48400 48400 40000 40000 32400 32400 25600 25600 19600 19600 14400 14400 10000 10000 10000 10000 6400 6400 6400 6400 3600 3600 3600 3600 1600 1600 1600 1600 400 400 400 400 0 0 3600 1600 144400 129600 67600 32400 25600 19600 129600 78400 19600 0
10000 67600 10000 78400 10000 78400 10000 78400 10000 78400 10000 67600 10000 67600 10000 67600 3600 67600 3600 67600 6400 67600 10000 67600 10000 78400 10000 78400 10000 3600 19600 78400 10000 400 14400 78400 10000 0 14400 78400 10000 0 14400 78400 3600 1600 14400 78400 32400 67600 0 0 67600 67600 67600 67600 67600 67600 78400 78400 78400 78400
10000 67600 10000 78400 10000 78400 10000 78400 10000 78400 10000 67600 10000 67600 10000 67600 3600 67600 3600 67600 6400 67600 10000 67600 10000 78400 10000 78400 10000 3600 19600 78400 10000 400 14400 78400 10000 0 14400 78400 10000 0 14400 78400 3600 1600 14400 78400 32400 67600 0 0 67600 67600 67600 67600 67600 67600 78400 78400 78400 78400
129600 0 129600 400 129600 400 129600 400 129600 400 129600 0 129600 0 129600 0 102400 0 102400 0 115600 0 129600 0 129600 400 129600 400 129600 40000 14400 400 129600 57600 19600 400 129600 67600 19600 400 129600 67600 19600 400 102400 90000 19600 400 6400 0 67600 67600 0 0 0 0 0 0 400 400 400 400
129600 0 129600 400 129600 400 129600 400 129600 400 129600 0 129600 0 129600 0 102400 0 102400 0 115600 0 129600 0 129600 400 129600 400 129600 40000 14400 400 129600 57600 19600 400 129600 67600 19600 400 129600 67600 19600 400 102400 90000 19600 400 6400 0 67600 67600 0 0 0 0 0 0 400 400 400 400
129600 0 129600 400 129600 400 129600 400 129600 400 129600 0 129600 0 129600 0 102400 0 102400 0 115600 0 129600 0 129600 400 129600 400 129600 40000 14400 400 129600 57600 19600 400 129600 67600 19600 400 129600 67600 19600 400 102400 90000 19600 400 6400 0 67600 67600 0 0 0 0 0 0 400 400 400 400
129600 0 129600 400 129600 400 129600 400 129600 400 129600 0 129600 0 129600 0 102400 0 102400 0 115600 0 129600 0 129600 400 129600 400 129600 40000 14400 400 129600 57600 19600 400 129600 67600 19600 400 129600 67600 19600 400 102400 90000 19600 400 6400 0 67600 67600 0 0 0 0 0 0 400 400 400 400
129600 0 129600 400 129600 400 129600 400 129600 400 129600 0 129600 0 129600 0 102400 0 102400 0 115600 0 129600 0 129600 400 129600 400 129600 40000 14400 400 129600 57600 19600 400 129600 67600 19600 400 129600 67600 19600 400 102400 90000 19600 400 6400 0 67600 67600 0 0 0 0 0 0 400 400 400 400
129600 0 129600 400 129600 400 129600 400 129600 400 129600 0 129600 0 129600 0 102400 0 102400 0 115600 0 129600 0 129600 400 129600 400 129600 40000 14400 400 129600 57600 19600 400 129600 67600 19600 400 129600 67600 19600 400 102400 90000 19600 400 6400 0 67600 67600 0 0 0 0 0 0 400 400 400 400
144400 400 144400 0 144400 0 144400 0 144400 0 144400 400 144400 400 144400 400 115600 400 115600 400 129600 400 144400 400 144400 0 144400 0 144400 48400 19600 0 144400 67600 25600 0 144400 78400 25600 0 144400 78400 25600 0 115600 102400 25600 0 10000 400 78400 78400 400 400 400 400 400 400 0 0 0 0
144400 400 144400 0 144400 0 144400 0 144400 0 144400 400 144400 400 144400 400 115600 400 115600 400 129600 400 144400 400 144400 0 144400 0 144400 48400 19600 0 144400 67600 25600 0 144400 78400 25600 0 144400 78400 25600 0 115600 102400 25600 0 10000 400 78400 78400 400 400 400 400 400 400 0 0 0 0
144400 400 144400 0 144400 0 144400 0 144400 0 144400 400 144400 400 144400 400 115600 400 115600 400 129600 400 144400 400 144400 0 144400 0 144400 48400 19600 0 144400 67600 25600 0 144400 78400 25600 0 144400 78400 25600 0 115600 102400 25600 0 10000 400 78400 78400 400 400 400 400 400 400 0 0 0 0
144400 400 144400 0 144400 0 144400 0 144400 0 144400 400 144400 400 144400 400 115600 400 115600 400 129600 400 144400 400 144400 0 144400 0 144400 48400 19600 0 144400 67600 25600 0 144400 78400 25600 0 144400 78400 25600 0 115600 102400 25600 0 10000 400 78400 78400 400 400 400 400 400 400 0 0 0 0


GTSP_SET_SECTION
1 1 2 -1
2 3 4 -1
3 5 6 -1
4 7 8 -1
5 9 10 -1
6 11 12 -1
7 13 14 -1
8 15 16 -1
9 17 18 -1
10 19 20 -1
11 21 22 -1
12 23 24 -1
13 25 26 -1
14 27 28 -1
15 29 30 -1
16 31 32 -1
17 33 34 -1
18 35 36 -1
19 37 38 -1
20 39 40 -1
21 41 42 -1
22 43 44 -1
23 45 46 -1
24 47 48 -1
25 49 50 -1
26 51 52 -1
27 53 54 -1
28 55 56 -1
29 57 58 -1
30 59 60 -1
31 61 62 -1
EOF